9
1
1
3
2
1
2
7
1
2
7
2
2
7
5
3
2
2
2
4
4
1
4
3
3
4
8
5
7
2
5
5
4
1
3
6
4
4
6
9
8
5
7
4
7
3
6
8
7
5
6
5
3
1
6
8
9
6
1
6
1
1
2
6
9
3
8
7
9
7
5
